p cnf 13 22
13 12 11 0
-13 11 8 0
13 -11 -3 0
-13 -9 -7 0
-13 -6 5 0
-12 -10 7 0
-12 9 7 0
-12 9 -6 0
12 3 -2 0
-11 -10 -8 0
-11 10 -7 0
-11 -10 2 0
-11 -9 6 0
11 -4 3 0
11 3 1 0
-10 -8 3 0
-10 7 3 0
9 8 1 0
9 -8 -1 0
-8 -7 -5 0
8 -4 3 0
-7 4 -1 0
